c WARNING: for repeatability, setting FPU to use double precision
d VARIABLES            228582       
d CONSTRAINTS          845740       
c ============================[ Problem Statistics ]=============================
c |                                                                             |
c |  Number of variables:        228582                                         |
c |  Number of clauses:          845740                                         |
c |  Parse time:                   0.15 s                                       |
c |                                                                             |
c ============================[ Search Statistics ]==============================
c | Conflicts |          ORIGINAL         |          LEARNT          | Progress |
c |           |    Vars  Clauses Literals |    Limit  Clauses Lit/Cl |          |
c ===============================================================================
c |       100 |  187521   738922  1854815 |   270938      100      3 | 17.963 % |
c |       250 |  187521   738922  1854815 |   298031      250     41 | 17.963 % |
c |       475 |  187521   738922  1854815 |   327835      475     44 | 17.963 % |
c |       812 |  187521   738922  1854815 |   360618      812     38 | 17.963 % |
c |      1318 |  187521   738922  1854815 |   396680     1318     31 | 17.963 % |
c |      2077 |  187521   738922  1854815 |   436348     2077     24 | 17.963 % |
c |      3216 |  187521   738922  1854815 |   479983     3216     19 | 17.963 % |
c |      4924 |  187521   738922  1854815 |   527981     4924     15 | 17.963 % |
c |      7486 |  187521   738922  1854815 |   580779     7486     19 | 17.963 % |
c |     11330 |  187521   738922  1854815 |   638857    11330     19 | 17.963 % |
c |     17096 |  187521   738922  1854815 |   702743    17096     23 | 17.963 % |
c |     25745 |  187430   738427  1853567 |   773017    25567     35 | 18.003 % |
c ===============================================================================
c restarts              : 101
c conflicts             : 28133          (1441 /sec)
c decisions             : 627481         (0.00 % random) (32150 /sec)
c propagations          : 129202412      (6619919 /sec)
c conflict literals     : 929950         (18.17 % deleted)
d RESTARTS             101
d FAILURES             28133        
d NODES                627481       
d BACKTRACKS           627481       
d PROPAGATIONS         129202412    
d NOGOODSIZE           33.06 
d MEMORY               71.00 
d TIME                 19.5172 

s UNSATISFIABLE
